Al40 O60
1.0
   9.9986379999999997   -0.2305960000000000   -0.0640780000000000
  -0.2274139999999990   10.6026009999999999   -0.2684620000000000
  -0.0564480000000000   -0.2678080000000000   10.6185659999999995
Al O
40 60
cartesian
   5.6733308452979996    2.8466032761090001    6.1206356289419990 Al
   8.3727390763639988    0.2901503251510000    4.8991900236279999 Al
   3.0747978123060005    3.0584757200069896    6.0866863318860016 Al
   2.1210709721059904    5.3648627971970004    4.0102973691759898 Al
   8.1013308975759983    3.2352706878619997    2.1762938768360001 Al
   2.5315672627740007    8.4613478649980003    5.0908708450739990 Al
   0.9890637245160010    9.0037112390490002    7.0788981279719998 Al
   0.2877076751200003    2.8539542931560002    4.6345490884279892 Al
   5.1907706210860010    2.3456410993379997    1.0770463164740001 Al
   7.1831830702720003    3.8436402767779998    9.7500394540939990 Al
   4.9566531590459997    5.6796038520389907    7.3233095709420013 Al
  -0.1072966611039994    6.7592711572999997    8.7522885699399993 Al
   5.0160151894119993    0.2179728813440002    4.9316325778819898 Al
   8.3451440453920007    7.6854888851239993    5.3317844554520004 Al
   4.5539726570579999   -0.0820380788759998   10.0687010586719889 Al
   6.5621989399240004    7.7934501779239991    9.3883906228219995 Al
   2.0492296595339905    2.0151230950440002    0.3567751514220001 Al
   7.0408894325420004    0.3376788098569894    0.9173022968260002 Al
   2.9848969724139995    1.7062232957260002    3.3577557877579998 Al
   3.7818252349820010    9.3482788845769900    2.1313207800759897 Al
   6.6325531075980004    0.4904512833279894    8.3959112944140006 Al
   3.0419779475220010    7.2854021242059899    9.7903311548279994 Al
   8.5561971097839997    8.1672833735029897    0.6362663680639896 Al
   0.5162114868459911    9.0965029804489905    3.5517599623820000 Al
   1.3520361340700013    9.2070003805049900    0.2344791413499897 Al
   4.5810987340740006    4.3569091345690003    3.4889032886819895 Al
   0.0204006406880004    3.7103803641400002   10.2168147562899900 Al
   4.9633909842620003    5.1832217804829996   10.2331966479639984 Al
   9.9091195759919888    0.3648031946880002    9.6673350594839995 Al
   8.5174038433220005    9.4533241826960008    7.4612180428179897 Al
   9.2132977820659914    6.0840779746160001    2.6891603472279999 Al
   6.9298530465900008    5.3832650026079998    4.4464067264939890 Al
   5.3241444160919995    7.6655151785269897    4.5119695598159897 Al
   1.8604861639420007    4.9536681558920002    8.1259390925959991 Al
   4.3541390051539910    8.7985188150100004    7.5353975598699998 Al
   6.1697708181040003    7.0418422715559901    1.9463836970180002 Al
   2.1599699812180004    5.3376557733839993    1.2501543054919999 Al
   8.5299600819800006    2.2317385349680001    7.4095164829239994 Al
  -0.0268625299860099    0.9946195740860001    2.2601785068779998 Al
   0.1659748649260006    6.0493762796040009    5.6449860145819901 Al
   0.0608417438580009    8.9871426566480004    1.4389736051039999 O
   1.7227911129540001    1.3749121152620001    2.1257075715660001 O
   6.2516418590900003    0.9108752825510000   10.0825003743580002 O
   1.9038109898780002    2.1262009466270002    4.7399869300359994 O
   5.7266206090859999    3.9100994612919902    0.2447720344259897 O
   9.1321921694139991    1.8262311260269894    5.7430494750259999 O
   3.9655882772699917    8.7775103898769906    9.3216973357260002 O
   0.9930430747200011    9.4307714879279896    5.3462058491939999 O
   6.1068743452260010    4.9939927043830004    8.8175078650739902 O
   0.1562870795000010   10.1289789711059992    8.0930149579179993 O
   1.8926937773080004    3.4309999104589894    7.3140077265320000 O
   0.5744367069300004    4.6005973214519997    4.6754928467459997 O
   9.3921284718779994    2.2726023117050000    3.0117643868699999 O
   5.1397215361940001   -0.1181327021150000    1.2168663341199999 O
   5.8022792884799914    6.9806767250739998    0.1526528252820001 O
   7.0492296524280000    9.2906615488799993    8.4001676960099996 O
   2.2826788448599911    8.7962973069619999    3.3084623778759998 O
   8.5095373472920013    3.8804623583899995    0.5044673525300000 O
   7.9820154544420019    6.9474126137070007    1.7345900881459895 O
   2.6703812349800011    8.5445358325000011    6.9673586504499898 O
   3.9599201189379998    0.2227710022790003    3.5234084972119897 O
   8.5848588558380001    3.4880807865169898    8.6495822159859994 O
   3.3642091472360005    5.9481911503289995    0.0696052577620000 O
   8.5096164623060009    0.7246284703530003    8.3761036293639890 O
   9.3720763306279906    7.7845720171000004    7.0601198622099997 O
   3.7871481353839904    1.7649071161310002   -0.0284404096219999 O
   1.2471549846920009    7.8090923611219898    9.4188842113359996 O
   0.7229087712900005    5.2442259114649996    9.6286185196799998 O
   5.2538942914680007    6.2195957775189896    5.5531760093819997 O
   0.5755040388139907    5.8922772837600004    7.3280849194899993 O
   4.9922941444360003    8.1586929235709995    2.7752631280880000 O
   3.3104584872579905    4.2478755426000010    4.7713109222599890 O
   7.0187786067000006    7.4811465362079890    4.1950113363539998 O
   1.5933771450640006    3.7421963177639896    0.7973482832120002 O
   9.5692803318739994   -0.2858198480940000    3.6206987196279998 O
   8.9837982951439983    0.6296144474309895    0.6863919077980003 O
   0.6663343620940003    2.1501969381759896    9.6712433037980006 O
   6.1215938829859908    3.7620341646830000    4.6732278509439995 O
   3.2284441315640002    5.3487615302289990    2.6496629059119998 O
   9.5986773147459896    7.3473212933399896    4.0021955425700000 O
   6.8470172339440003    1.9721409275919894    1.8481152344960001 O
   6.6884067227020001    0.4850460433960002    4.6216891758979894 O
   0.8070500898160007    5.9921849998659891    2.1835171350980001 O
   8.3170390231259983    5.8440993621889996    5.6352417009719993 O
   4.5823148559879900    3.9112210429559897    7.0006763142679995 O
   4.3464081762979996    1.6993669877440001    5.7043264566519998 O
   6.7558711272399901    1.9842357341509897    7.2322723800980002 O
   7.1413467238719912    9.1670358460829906    0.3830594650939897 O
   5.7902243321400011    5.5774687858849994    2.9147985709199999 O
   8.1475906049979923    9.4848485244679992    5.7288849397039998 O
   5.5284001629820008    7.3902907486879998    7.8736659570739995 O
   8.4310979803220008    7.1313877517950006    9.5986330854999888 O
   1.8866772103820006    6.7480185253930003    5.0945708777439886 O
   3.3370832899440002    6.0103660406959909    8.2697025211979884 O
   4.2238712509600003    2.8018160847499995    2.5640309212699997 O
   8.2069661317979996    4.7053308586319895    3.1913837295360001 O
   4.9594492381060000   -0.0605014999400105    8.1018870788299981 O
   1.4476796172600002   -0.0256692691650000   10.5636959668200010 O
   2.8474172488380010    8.5447436680970004    0.8084651776859999 O
   4.4493063215340012    9.0460764202009880    5.3235788534579997 O
