pymatgen with grid density = 1481 / number of atoms
0
Gamma
11 11 11
