Cu1
1.0
   0.0000000000000000    1.7500000000000000    1.7500000000000000
   1.7500000000000000    0.0000000000000000    1.7500000000000000
   1.7500000000000000    1.7500000000000000    0.0000000000000000
Cu
1
direct
   0.0000000000000000    0.0000000000000000    0.0000000000000000 Cu
