# Generated by Masgent from simulation using CHGNet with fmax = 0.1 eV/Å.
 1.0000000000000000
    -1.5548914451060685   -4.5729325840298634    2.8724918778804844
     4.7514689429798107   -0.0561208533403207    8.1780164704093963
    -4.8161829180100968    0.0192789479409621    2.8779634940150873
 Co  La  O  
   4   4  11
Direct
  0.5048861004665339  1.0002637258902800  0.5049074170618540
 -0.0053470248429992  0.7546804253395464  0.7472210805911074
  0.5098219288596832  0.4936615490792187  0.0030414145480368
 -0.0070234714486035  0.2529709457746223  0.2426563390038298
  0.2577469527654806  0.8570051387464996  0.1045586715616138
  0.2567689385522888  0.3902934696833738  0.6347616007916421
  0.7520899577658668  0.6270750467772636  0.3723998998251694
  0.7357978205723201  0.1235752442150755  0.8855347349267610
  0.3315329064698762  0.6171425750184619  0.3691827607681992
  0.8264234763896391  0.3893533375255075  0.0559508470564994
  0.6443666066103644  0.8945397636092413  0.1311452756057380
  0.7014313868795401  0.3587901309646729  0.6425157800432986
  0.2783669847881878  0.3585227636976131  0.2003319352822839
  0.7282210790532015  0.1323671720422828  0.3117327419219751
  0.2322639012955622  0.8915567437027687  0.6887276879179411
  0.7319370507089491  0.6276258466048362  0.8079624281487651
  0.1858600862458168  0.6174296188088660  0.9485663074924032
  0.3197509909315316  0.1227222053242904  0.8736734902720537
  0.8315163319798730  0.8673643090620673  0.5317085583439486
