# Generated by Masgent with vacancy defects of element O by randomly removing 1 atoms, be careful to verify structure.
 1.0000000000000000
    -1.5375440000000000   -4.5478850000000000    2.8014259999999993
     4.7816669999999997   -0.0092330000000000    8.0950620000000004
    -4.7825220000000002    0.0290090000000000    2.8115389999999998
 Co  La  O  
   4   4  11
Direct
  0.5048659999999990  0.9995229999999989  0.4952389999999999
  0.0011070000000000  0.7505560000000000  0.7455439999999999
  0.4950190000000000  0.5033309999999999  0.0044659999999989
  0.0003039999999990  0.2484690000000000  0.2548769999999990
  0.2522820000000000  0.8755620000000000  0.1186459999999998
  0.2487659999999999  0.3730459999999999  0.6324470000000001
  0.7524700000000000  0.6253949999999989  0.3725539999999999
  0.7489159999999990  0.1271939999999999  0.8736649999999991
  0.1765449999999990  0.6271699999999999  0.9448619999999999
  0.2437949999999990  0.3680360000000000  0.1958500000000001
  0.2636700000000000  0.8751909999999989  0.6770699999999998
  0.7493170000000000  0.1267960000000000  0.3054519999999999
  0.3289099999999999  0.1194800000000000  0.8534280000000000
  0.6738520000000000  0.3740640000000000  0.6516360000000001
  0.6783549999999989  0.8816709999999999  0.1348689999999999
  0.8225920000000000  0.3744450000000000  0.0696450000000000
  0.3192359999999990  0.6187349999999991  0.3652780000000000
  0.7435670000000000  0.6293200000000001  0.8098380000000001
  0.8128429999999999  0.8789559999999998  0.5512130000000000
